c Result of efficient AIG-to-CNF conversion using package CNF
p cnf 66 151
-2 -3 0
-2 13 23 0
2 3 -23 0
2 3 -13 0
-3 4 6 9 10 0
3 -10 0
3 -4 0
3 -9 0
3 -6 0
-4 46 47 48 5 0
4 -5 0
4 -48 0
4 -46 0
4 -47 0
-5 59 60 61 0
5 -59 0
5 -61 0
5 -60 0
-6 43 44 45 7 0
6 -7 0
6 -45 0
6 -43 0
6 -44 0
-7 56 57 58 8 0
7 -8 0
7 -58 0
7 -56 0
7 -57 0
-8 52 53 54 55 0
8 -55 0
8 -54 0
8 -52 0
8 -53 0
-9 35 36 37 0
9 -35 0
9 -37 0
9 -36 0
-10 38 39 11 12 0
10 -38 0
10 -12 0
10 -11 0
10 -39 0
-11 49 50 51 0
11 -49 0
11 -51 0
11 -50 0
-12 40 41 42 0
12 -40 0
12 -42 0
12 -41 0
-13 62 14 0
-13 -62 18 0
13 -62 -18 0
13 62 -14 0
-14 -63 15 0
-14 63 17 0
-14 -63 -16 0
14 63 -17 0
14 -63 -15 16 0
-15 52 64 -65 0
-15 54 64 65 0
15 -64 0
15 -54 65 0
15 -52 -65 0
16 48 -64 -65 0
16 50 -64 65 0
-16 64 0
-16 -50 65 0
-16 -48 -65 0
17 -56 -64 -65 0
17 -58 -64 65 0
-17 64 0
-17 56 -65 0
-17 58 65 0
18 -63 -21 0
18 63 -19 20 0
-18 63 19 0
-18 -63 21 0
-18 63 -20 0
-19 44 64 -65 0
-19 46 64 65 0
19 -64 0
19 -46 65 0
19 -44 -65 0
20 40 -64 -65 0
20 42 -64 65 0
-20 64 0
-20 -42 65 0
-20 -40 -65 0
21 64 -22 0
21 -34 -64 65 0
-21 64 22 0
-21 -64 -65 0
-21 34 -64 0
22 -38 65 0
22 -36 -65 0
-22 38 65 0
-22 36 -65 0
-23 62 24 0
-23 -62 -31 0
-23 -62 28 0
23 62 -24 0
23 -62 -28 31 0
-24 -63 25 0
-24 63 27 0
-24 -63 -26 0
24 63 -27 0
24 -63 -25 26 0
-25 54 64 -65 0
-25 56 64 65 0
25 -64 0
25 -56 65 0
25 -54 -65 0
26 50 -64 -65 0
26 52 -64 65 0
-26 64 0
-26 -52 65 0
-26 -50 -65 0
27 -58 -64 -65 0
27 -60 -64 65 0
-27 64 0
-27 58 -65 0
-27 60 65 0
-28 63 -64 30 0
-28 63 64 29 0
28 -63 0
28 -64 -30 0
28 64 -29 0
29 -48 65 0
29 -46 -65 0
-29 48 65 0
-29 46 -65 0
30 -44 65 0
30 -42 -65 0
-30 44 65 0
-30 42 -65 0
31 -63 -64 33 0
31 -63 64 32 0
-31 63 0
-31 -64 -33 0
-31 64 -32 0
32 -40 65 0
32 -38 -65 0
-32 40 65 0
-32 38 -65 0
33 -36 65 0
33 -34 -65 0
-33 36 65 0
-33 34 -65 0
-66 0
2 0

